&CONTROL
  calculation = 'scf'
  prefix = 'tanise5'
  outdir = './out'
  pseudo_dir = '../pseudo'
  verbosity = 'low'
/
&SYSTEM
  ibrav = 8
  a = 3.5029
  b = 12.8699
  c = 15.6768
  nat = 32
  ntyp = 3
  ecutwfc = 45.0
  ecutrho = 360.0
  occupations = 'smearing'
  smearing = 'gaussian'
  degauss = 0.01
  nspin = 1
/
&ELECTRONS
  conv_thr = 1.0d-5
  mixing_beta = 0.3
  mixing_mode = 'local-TF'
  electron_maxstep = 200
/
ATOMIC_SPECIES
  Ta 180.948 Ta.pbe-spn-rrkjus_psl.1.0.0.UPF
  Ni  58.693 Ni.pbe-spn-kjpaw_psl.1.0.0.UPF
  Se  78.971 Se.pbe-n-rrkjus_psl.1.0.0.UPF
ATOMIC_POSITIONS {crystal}
  Ta  0.000000  0.278842  0.610222
  Ta  0.000000  0.278842  0.889778
  Ta  0.000000  0.721158  0.110222
  Ta  0.000000  0.721158  0.389778
  Ta  0.500000  0.221158  0.110222
  Ta  0.500000  0.221158  0.389778
  Ta  0.500000  0.778842  0.610222
  Ta  0.500000  0.778842  0.889778
  Ni  0.000000  0.200960  0.250000
  Ni  0.000000  0.799040  0.750000
  Ni  0.500000  0.299040  0.750000
  Ni  0.500000  0.700960  0.250000
  Se  0.000000  0.080461  0.137726
  Se  0.000000  0.080461  0.362274
  Se  0.000000  0.173210  0.750000
  Se  0.000000  0.354170  0.049338
  Se  0.000000  0.354170  0.450662
  Se  0.000000  0.645830  0.549338
  Se  0.000000  0.645830  0.950662
  Se  0.000000  0.826790  0.250000
  Se  0.000000  0.919539  0.637726
  Se  0.000000  0.919539  0.862274
  Se  0.500000  0.145830  0.549338
  Se  0.500000  0.145830  0.950662
  Se  0.500000  0.326790  0.250000
  Se  0.500000  0.419539  0.637726
  Se  0.500000  0.419539  0.862274
  Se  0.500000  0.580461  0.137726
  Se  0.500000  0.580461  0.362274
  Se  0.500000  0.673210  0.750000
  Se  0.500000  0.854170  0.049338
  Se  0.500000  0.854170  0.450662
K_POINTS {automatic}
  4 1 1 0 0 0
