&control
  calculation = 'scf'
  prefix = 'lay_h10'
  outdir = './out'
  pseudo_dir = './pseudo'
  tprnfor = .true.
  tstress = .true.
  forc_conv_thr = 1.0d-4
  etot_conv_thr = 1.0d-5
  nstep = 200
  verbosity = 'low'
/
&system
  ibrav = 0
  nat = 22
  ntyp = 3
  ecutwfc = 70.0
  ecutrho = 560.0
  nosym = .true.
  occupations = 'smearing'
  smearing = 'mp'
  degauss = 0.02
/
&electrons
  conv_thr = 1.0d-12
  mixing_beta = 0.4
  electron_maxstep = 400
/

ATOMIC_SPECIES
  La 138.905 La.pbe-spfn-rrkjus_psl.1.0.0.UPF
  Y 88.906 Y.pbe-spn-rrkjus_psl.1.0.0.UPF
  H 1.008 H.pbe-rrkjus_psl.1.0.0.UPF
ATOMIC_POSITIONS crystal
  La 0.0000000000 0.0000000000 0.0000000000
  H  0.2500000000 0.2500000000 0.1250000000
  H  0.7500000000 0.7500000000 0.3750000000
  H  0.3750000000 0.3750000000 0.1875000000
  H  0.3750000000 0.3750000000 0.4375000000
  H  0.3750000000 0.8750000000 0.1875000000
  H  0.8750000000 0.3750000000 0.1875000000
  H  0.6250000000 0.6250000000 0.0625000000
  H  0.6250000000 0.6250000000 0.3125000000
  H  0.6250000000 0.1250000000 0.3125000000
  H  0.1250000000 0.6250000000 0.3125000000
  Y  0.0000000000 0.0000000000 0.5000000000
  H  0.2500000000 0.2500000000 0.6250000000
  H  0.7500000000 0.7500000000 0.8750000000
  H  0.3750000000 0.3750000000 0.6875000000
  H  0.3750000000 0.3750000000 0.9375000000
  H  0.3750000000 0.8750000000 0.6875000000
  H  0.8750000000 0.3750000000 0.6875000000
  H  0.6250000000 0.6250000000 0.5625000000
  H  0.6250000000 0.6250000000 0.8125000000
  H  0.6250000000 0.1250000000 0.8125000000
  H  0.1250000000 0.6250000000 0.8125000000
CELL_PARAMETERS angstrom
  0.0000000000 2.4650000000 2.4650000000
  2.4650000000 0.0000000000 2.4650000000
  4.9300000000 4.9300000000 0.0000000000
K_POINTS automatic
  12 12 12 0 0 0
