&control
  calculation = 'scf'
  prefix = 'li2mgh16'
  outdir = './out'
  pseudo_dir = './pseudo'
  tprnfor = .true.
  tstress = .true.
  forc_conv_thr = 1.0d-4
  etot_conv_thr = 1.0d-5
  nstep = 200
  verbosity = 'low'
/
&system
  ibrav = 0
  nat = 38
  ntyp = 3
  ecutwfc = 60.0
  ecutrho = 480.0
  nosym = .true.
  occupations = 'smearing'
  smearing = 'mp'
  degauss = 0.02
/
&electrons
  conv_thr = 1.0d-12
  mixing_beta = 0.4
  electron_maxstep = 400
/

ATOMIC_SPECIES
  Li 6.941 Li.pbe-s-rrkjus_psl.1.0.0.UPF
  Mg 24.305 Mg.pbe-spnl-rrkjus_psl.1.0.0.UPF
  H 1.008 H.pbe-rrkjus_psl.1.0.0.UPF

CELL_PARAMETERS angstrom
  0.0000000000 3.3592565000 3.3592565000
  3.3592565000 0.0000000000 3.3592565000
  3.3592565000 3.3592565000 0.0000000000
ATOMIC_POSITIONS (crystal)
Li            0.6249999999        0.1250000001        0.6250000000
Li            0.6250000001        0.6250000000        0.1250000001
Li            0.1250000000        0.6250000000        0.6250000001
Li            0.6250000000        0.6250000001        0.6250000000
Mg            0.0000000002        0.0000000034       -0.0000000057
Mg            0.2499999998        0.2499999966        0.2500000056
H             0.8324943836        0.8324943836        0.5025168500
H             0.5025168507        0.8324943824        0.8324943832
H             0.8324943839        0.5025168499        0.8324943830
H             0.4175056165        0.4175056165        0.7474831501
H             0.4175056161        0.7474831501        0.4175056170
H             0.7474831492        0.4175056176        0.4175056170
H             0.8324943836        0.8324943828        0.8324943833
H             0.4175056163        0.4175056174        0.4175056167
H             0.8744480327        0.2542665774        0.6170188125
H             0.6170188147        0.8744480311        0.2542665773
H             0.2542665761        0.6170188150        0.8744480324
H             0.9957334243        0.3755519677        0.6329811841
H             0.3755519669        0.6329811867        0.9957334235
H             0.6329811865        0.9957334222        0.3755519685
H             0.3755519674        0.9957334228        0.6329811873
H             0.6329811853        0.3755519688        0.9957334229
H             0.9957334241        0.6329811849        0.3755519676
H             0.2542665758        0.8744480324        0.6170188157
H             0.8744480332        0.6170188131        0.2542665767
H             0.6170188137        0.2542665779        0.8744480314
H             0.2542665755        0.8744480321        0.2542665763
H             0.6170188143        0.2542665775        0.2542665773
H             0.6329811856        0.9957334225        0.9957334227
H             0.9957334233        0.9957334230        0.3755519678
H             0.9957334243        0.3755519677        0.9957334237
H             0.2542665765        0.2542665770        0.8744480321
H             0.2542665759        0.6170188154        0.2542665756
H             0.3755519674        0.9957334230        0.9957334229
H             0.9957334240        0.6329811844        0.9957334245
H             0.8744480325        0.2542665769        0.2542665770
H             0.2542665759        0.2542665761        0.6170188152
H             0.9957334241        0.9957334241        0.6329811845
K_POINTS automatic
  8 8 8 0 0 0


