&CONTROL
  calculation     = 'scf'
  prefix          = 'yh9'
  outdir          = './out'
  verbosity       = 'high'
  pseudo_dir      = './pseudo'
  tstress         = .true.
  tprnfor         = .true.
/
&SYSTEM
  ibrav = 0
  nat             = 20               ! 2 Y (2d) + 2 H (2b) + 4 H (4f) + 12 H (12k) = YH9 (Z=2)
  ntyp            = 2
  ecutwfc         = 80
  ecutrho         = 800
  nosym           = .true.
  occupations     = 'smearing'
  smearing        = 'mp'
  degauss         = 0.01
/
&ELECTRONS
  conv_thr        = 1.0d-10
  mixing_beta     = 0.3
  mixing_mode     = 'plain'
  diagonalization = 'david'
  electron_maxstep = 400
/
ATOMIC_SPECIES
  Y   88.9059  Y.pbe-spn-rrkjus_psl.1.0.0.UPF
  H    1.008   H.pbe-rrkjus_psl.1.0.0.UPF

! YH9 P6_3/mmc H29-cage clathrate (CeH9-isostructural transfer, drafts/wave3b-coords.md):
!   Y  2d (2/3,1/3,1/4); H 2b (0,0,1/4); H 4f (1/3,2/3,z) z=0.1499; H 12k (x,2x,z) x=0.1565 z=0.4404

CELL_PARAMETERS (angstrom)
  3.18622   -0.0172906   0.70978
  -1.60806   2.78527   4.43051e-05
  0.338867   0.195561   5.66285
ATOMIC_POSITIONS (crystal)
Y             0.5111788997        0.2555933056        0.2501854753
Y             0.4888210199        0.7444134865        0.7498145488
H            -0.1327751623       -0.0664013583        0.2335159774
H             0.1327751749        0.0663732980        0.7664839859
H             0.2439055732        0.6219313707        0.1323138813
H             0.7560943682        0.3780269196        0.8676861999
H             0.1067859538        0.2996872979        0.5554789656
H             0.8932153652        0.1929046930        0.4445214719
H             0.1141016905        0.5570762722        0.3312448817
H             0.4561007083        0.7280578138        0.4301253483
H             0.8931934127        0.7003571584        0.4445131947
H             0.8858980978        0.4429720673        0.6687552748
H             0.5438995361        0.2719571940        0.5698745117
H             0.1068055764        0.8071607443        0.5554863966
H             0.1216741514        0.2945112624        1.0613036253
H             0.6657298660        0.8328783080        1.0554051658
H             0.8783319216        0.7054251320        0.9387034223
H             0.8783262413        0.1728317447       -0.0613035286
H             0.3342703243        0.1671448194       -0.0554051612
H             0.1216672809        0.8270984705        0.0612963623
K_POINTS automatic
  12 12 8  0 0 0


