&control
  calculation = 'scf'
  prefix = 'ceh9'
  outdir = './out'
  pseudo_dir = './pseudo'
  tprnfor = .true.
  tstress = .true.
  forc_conv_thr = 1.0d-4
  etot_conv_thr = 1.0d-5
  nstep = 200
  verbosity = 'low'
/
&system
  ibrav = 0
  nat = 20
  ntyp = 2
  ecutwfc = 70.0
  ecutrho = 560.0
  nosym = .true.
  occupations = 'smearing'
  smearing = 'mp'
  degauss = 0.02
/
&electrons
  conv_thr = 1.0d-12
  mixing_beta = 0.4
  electron_maxstep = 400
/

ATOMIC_SPECIES
  Ce 140.116 Ce.pbe-spdn-rrkjus_psl.1.0.0.UPF
  H 1.008 H.pbe-rrkjus_psl.1.0.0.UPF

CELL_PARAMETERS angstrom
  3.7110000000 0.0000000000 0.0000000000
  -1.8555000000 3.2138202734 0.0000000000
  0.0000000000 0.0000000000 5.5429000000
ATOMIC_POSITIONS (crystal)
Ce            0.3333333250        0.6666666352        0.7499999634
Ce            0.6666666750        0.3333333648        0.2500000365
H            -0.0000000071        0.0000000424        0.2499999965
H             0.0000000071       -0.0000000424        0.7500000028
H             0.3333334032        0.6666666974        0.1607245534
H             0.6666666657        0.3333333025        0.6607246493
H             0.6666665967        0.3333333026        0.8392753413
H             0.3333333344        0.6666666975        0.3392754569
H             0.1516114600        0.3032224873        0.4564397644
H             0.6967777163        0.8483887575        0.4564398590
H             0.1516114281        0.8483888736        0.4564396381
H             0.8483889933        0.6967774808        0.9564398003
H             0.3032225319        0.1516110996        0.9564397037
H             0.8483888915        0.1516111984        0.9564399401
H             0.3032222808        0.1516112411        0.5435601226
H             0.8483885414        0.6967775155        0.5435602171
H             0.8483885732        0.1516111250        0.5435603434
H             0.6967774668        0.8483888995        0.0435603147
H             0.1516110072        0.3032225206        0.0435602182
H             0.1516111093        0.8483888011        0.0435600784
K_POINTS automatic
  12 12 12 0 0 0


