&control
  calculation='bands'
  verbosity='high'
  prefix='ni3in'
  outdir='./out'
  pseudo_dir='./pseudo'
/
&system
  ibrav=4
  celldm(1)=9.9892
  celldm(3)=0.80268
  nat=8
  ntyp=2
  ecutwfc=60
  ecutrho=480
  nbnd=60
  occupations='smearing'
  smearing='mv'
  degauss=0.025
  nspin=1
/
&electrons
  diago_thr_init=1.0d-4
  diago_full_acc=.false.
  diagonalization='david'
/
ATOMIC_SPECIES
  Ni 58.693 Ni.pbe-spn-kjpaw_psl.1.0.0.UPF
  In 114.818 In.pbe-dn-rrkjus_psl.1.0.0.UPF
ATOMIC_POSITIONS crystal
  Ni 0.500000 0.000000 0.250000
  Ni 0.000000 0.500000 0.250000
  Ni 0.500000 0.500000 0.250000
  Ni 0.500000 0.000000 0.750000
  Ni 0.000000 0.500000 0.750000
  Ni 0.500000 0.500000 0.750000
  In 0.333333 0.666667 0.250000
  In 0.666667 0.333333 0.750000
K_POINTS crystal_b
  4
  0.000000 0.000000 0.000000 40
  0.333333 0.333333 0.000000 40
  0.500000 0.000000 0.000000 40
  0.000000 0.000000 0.000000 1
