&CONTROL
  calculation = 'scf'
  prefix = 'tanise5mu'
  outdir = './out_mono_u'
  pseudo_dir = './pseudo'
  verbosity = 'high'
  disk_io = 'low'
/
&SYSTEM
  ibrav = 0
  nat = 32
  ntyp = 3
  ecutwfc = 45.0
  ecutrho = 360.0
  nbnd = 165
  occupations = 'smearing'
  smearing = 'cold'
  degauss = 0.02
  nspin = 1
/
&ELECTRONS
  conv_thr = 1.0d-6
  mixing_beta = 0.1
  mixing_mode = 'local-TF'
  mixing_ndim = 12
  electron_maxstep = 300
  diagonalization = 'david'
  diago_david_ndim = 4
/
CELL_PARAMETERS {angstrom}
  3.49600000  0.00000000  0.00000000
  0.00000000  12.82900000  0.00000000
  -0.14468102  0.00000000  15.64033083
ATOMIC_SPECIES
  Ta 180.948 Ta.pbe-spn-rrkjus_psl.1.0.0.UPF
  Ni  58.693 Ni.pbe-spn-kjpaw_psl.1.0.0.UPF
  Se  78.971 Se.pbe-n-rrkjus_psl.1.0.0.UPF
ATOMIC_POSITIONS {crystal}
  Ta  0.007930  0.221349  0.389558
  Ta  0.007930  0.778651  0.889558
  Ta  0.492070  0.278651  0.610442
  Ta  0.492070  0.721349  0.110442
  Ta  0.507930  0.278651  0.889558
  Ta  0.507930  0.721349  0.389558
  Ta  0.992070  0.221349  0.110442
  Ta  0.992070  0.778651  0.610442
  Ni  0.000000  0.298870  0.750000
  Ni  0.000000  0.701130  0.250000
  Ni  0.500000  0.201130  0.250000
  Ni  0.500000  0.798870  0.750000
  Se  0.000000  0.327140  0.250000
  Se  0.000000  0.672860  0.750000
  Se  0.005130  0.145648  0.549134
  Se  0.005130  0.854352  0.049134
  Se  0.005300  0.419615  0.637979
  Se  0.005300  0.580385  0.137979
  Se  0.494700  0.080385  0.362021
  Se  0.494700  0.919615  0.862021
  Se  0.494870  0.354352  0.450866
  Se  0.494870  0.645648  0.950866
  Se  0.500000  0.172860  0.750000
  Se  0.500000  0.827140  0.250000
  Se  0.505130  0.354352  0.049134
  Se  0.505130  0.645648  0.549134
  Se  0.505300  0.080385  0.137979
  Se  0.505300  0.919615  0.637979
  Se  0.994700  0.419615  0.862021
  Se  0.994700  0.580385  0.362021
  Se  0.994870  0.145648  0.950866
  Se  0.994870  0.854352  0.450866
K_POINTS {automatic}
  4 1 1 0 0 0

HUBBARD {ortho-atomic}
  U Ni-3d 3.0
