! Li2MgH16 Fd-3m #227 origin-2 hall=526 a=6.7185 FCC-prim @250GPa min_d=0.798Ang
&CONTROL
  calculation = 'vc-relax'
  prefix = 'li2mgh16'
  outdir = './tmp'
  pseudo_dir = '../pseudo'
  tprnfor = .true.
  tstress = .true.
  forc_conv_thr = 1.0d-4
  etot_conv_thr = 1.0d-5
  nstep = 200
/
&SYSTEM
  ibrav = 2
  celldm(1) = 12.69612499
  nat = 38
  ntyp = 3
  ecutwfc = 80
  ecutrho = 800
  occupations = 'smearing'
  smearing = 'mp'
  degauss = 0.02
/
&ELECTRONS
  conv_thr = 1.0d-12
  mixing_beta = 0.4
  electron_maxstep = 400
/
&IONS
  ion_dynamics = 'bfgs'
/
&CELL
  cell_dynamics = 'bfgs'
  press = 2500.0
  press_conv_thr = 0.5
  cell_factor = 3.0
/
ATOMIC_SPECIES
  Li  6.941    Li.UPF
  Mg  24.305   Mg.UPF
  H   1.008    H.UPF
ATOMIC_POSITIONS crystal
  Li  0.00000000 0.00000000 0.00000000
  Li  0.00000000 0.50000000 0.00000000
  Li  0.50000000 0.50000000 0.00000000
  Li  0.00000000 0.50000000 0.50000000
  Mg  0.62500000 0.12500000 0.62500000
  Mg  0.37500000 0.87500000 0.37500000
  H   0.16700000 0.49900000 0.16700000
  H   0.83300000 0.50100000 0.83300000
  H   0.83300000 0.33300000 0.83300000
  H   0.16700000 0.66700000 0.16700000
  H   0.99900000 0.66700000 0.16700000
  H   0.00100000 0.33300000 0.83300000
  H   0.83300000 0.33300000 0.00100000
  H   0.16700000 0.66700000 0.99900000
  H   0.30590000 0.56470000 0.56470000
  H   0.69410000 0.43530000 0.43530000
  H   0.43530000 0.93530000 0.69410000
  H   0.56470000 0.06470000 0.30590000
  H   0.06470000 0.80590000 0.56470000
  H   0.93530000 0.19410000 0.43530000
  H   0.43530000 0.93530000 0.93530000
  H   0.56470000 0.06470000 0.06470000
  H   0.56470000 0.56470000 0.56470000
  H   0.43530000 0.43530000 0.43530000
  H   0.69410000 0.93530000 0.93530000
  H   0.30590000 0.06470000 0.06470000
  H   0.56470000 0.80590000 0.56470000
  H   0.43530000 0.19410000 0.43530000
  H   0.93530000 0.93530000 0.69410000
  H   0.06470000 0.06470000 0.30590000
  H   0.56470000 0.56470000 0.30590000
  H   0.43530000 0.43530000 0.69410000
  H   0.93530000 0.93530000 0.43530000
  H   0.06470000 0.06470000 0.56470000
  H   0.56470000 0.80590000 0.06470000
  H   0.43530000 0.19410000 0.93530000
  H   0.69410000 0.93530000 0.43530000
  H   0.30590000 0.06470000 0.56470000
K_POINTS automatic
  12 12 12 0 0 0
