&CONTROL
  calculation = "bands"
  prefix      = "csv3sb5"
  outdir      = "./out"
  pseudo_dir  = "./pseudo"
  verbosity   = "high"
/
&SYSTEM
  ibrav        = 4
  a            = 5.4500
  c            = 9.3100
  nat          = 9
  ntyp         = 3
  ecutwfc      = 65.0
  ecutrho      = 650.0
  occupations  = "smearing"
  smearing     = "mp"
  degauss      = 0.02
  nspin        = 1
  nbnd         = 60
/
&ELECTRONS
  conv_thr    = 1.0d-7
/
ATOMIC_SPECIES
  Cs  132.905  Cs.pbe-spn-rrkjus_psl.1.0.0.UPF
  V    50.942  V.pbe-spnl-rrkjus_psl.1.0.0.UPF
  Sb  121.760  Sb.pbe-n-rrkjus_psl.1.0.0.UPF
ATOMIC_POSITIONS crystal
  Cs  0.000000  0.000000  0.000000
  V   0.500000  0.000000  0.500000
  V   0.000000  0.500000  0.500000
  V   0.500000  0.500000  0.500000
  Sb  0.000000  0.000000  0.500000
  Sb  0.333333  0.666667  0.740000
  Sb  0.666667  0.333333  0.260000
  Sb  0.333333  0.666667  0.260000
  Sb  0.666667  0.333333  0.740000
K_POINTS crystal_b
8
  0.000000 0.000000 0.000000 30   ! Gamma
  0.500000 0.000000 0.000000 30   ! M
  0.333333 0.333333 0.000000 30   ! K
  0.000000 0.000000 0.000000 30   ! Gamma
  0.000000 0.000000 0.500000 30   ! A
  0.500000 0.000000 0.500000 30   ! L
  0.333333 0.333333 0.500000 30   ! H
  0.000000 0.000000 0.500000 1    ! A
