&CONTROL
  calculation     = 'scf'
  prefix          = 'lah10'
  outdir          = './out'
  verbosity       = 'high'
  pseudo_dir      = './pseudo'
  tstress         = .true.
  tprnfor         = .true.
/
&SYSTEM
  ibrav = 0
  nat             = 11               ! 1 La (4a) + 2 H (8c) + 8 H (32f) per fcc-primitive (Z=1 f.u.)
  ntyp            = 2
  ecutwfc         = 80
  ecutrho         = 800
  nosym           = .true.
  occupations     = 'smearing'
  smearing        = 'mp'
  degauss         = 0.01
/
&ELECTRONS
  conv_thr        = 1.0d-10
  mixing_beta     = 0.3
  mixing_mode     = 'plain'
  diagonalization = 'david'
  electron_maxstep = 400
/
ATOMIC_SPECIES
  La  138.905   La.pbe-spfn-rrkjus_psl.1.0.0.UPF
  H    1.008   H.pbe-rrkjus_psl.1.0.0.UPF

! LaH10 sodalite: La @ 4a (0,0,0), H @ 8c (1/4,1/4,1/4), H @ 32f (x,x,x) x~0.375 (H32 clathrate cage).
! fcc-primitive representation; vc-relax refines the 32f free coordinate.

CELL_PARAMETERS (angstrom)
  -2.422   -4.26568e-05   2.42202
  4.86967e-05   2.42202   2.42202
  -2.422   2.42201   -4.06571e-05
ATOMIC_POSITIONS (crystal)
La            0.0000000000       -0.0000000000        0.0000000000
H             0.2500013970        0.2500013885        0.2500014159
H             0.7499986030        0.7499986116        0.7499985842
H             0.3793349209        0.3793350568        0.3793349003
H             0.6206650791        0.6206649432        0.6206650997
H             0.3793582041        0.3793579370        0.8619455562
H             0.6206417959        0.6206420630        0.1380544438
H             0.3793579634        0.8619455286        0.3793580573
H             0.6206420367        0.1380544715        0.6206419427
H             0.8619455376        0.3793578638        0.3793582532
H             0.1380544624        0.6206421362        0.6206417468
K_POINTS automatic
  12 12 12  0 0 0


