el-ph RbOs2O6 nonmag 2x2x2 q
&inputph
  prefix      = "rbos2o6"
  outdir      = "./out_nm"
  fildyn      = "rbos2o6.dyn"
  fildvscf    = "dvscf"
  tr2_ph      = 1.0d-14
  electron_phonon = "interpolated"
  el_ph_sigma = 0.005
  el_ph_nsigma = 10
  ldisp       = .true.
  nq1 = 2, nq2 = 2, nq3 = 2
/
