&inputph
  prefix="YH6"
  outdir="./out"
  fildyn="YH6.dyn"
  fildvscf="dvscf"
  ldisp=.true.
  nq1=4
  nq2=4
  nq3=4
  tr2_ph=1.0d-14
  electron_phonon="simple"
  el_ph_sigma=0.005
  el_ph_nsigma=10
  recover=.true.
/
