RhPb Gamma-point phonon (ibrav=4 cell, dynamical stability gate)
&inputph
  prefix    = 'rhpb4'
  outdir    = './out4'
  fildyn    = 'rhpb4_gamma.dyn'
  tr2_ph    = 1.0d-14
  ldisp     = .false.
  trans     = .true.
  amass(1)  = 102.906
  amass(2)  = 207.200
/
0.0 0.0 0.0
